c Read 3184 clauses.  1194 variables
c Breaking ties randomly with seed 1
c Placed 3184 terms into 558 buckets.
c Bucket 27 Reduced to term with 7 nodes
c Bucket 54 Reduced to term with 7 nodes
c Bucket 81 Reduced to term with 9 nodes
c Bucket 108 Reduced to term with 9 nodes
c Bucket 135 Reduced to term with 7 nodes
c Bucket 162 Reduced to term with 7 nodes
c Bucket 189 Reduced to term with 7 nodes
c Bucket 216 Reduced to term with 7 nodes
c Bucket 243 Reduced to term with 13 nodes
c Bucket 270 Reduced to term with 9 nodes
c Bucket 297 Reduced to term with 9 nodes
c Bucket 324 Reduced to term with 9 nodes
c Bucket 351 Reduced to term with 9 nodes
c Bucket 378 Reduced to term with 15 nodes
c Bucket 405 Reduced to term with 11 nodes
c Bucket 432 Reduced to term with 9 nodes
c Bucket 459 Reduced to term with 33 nodes
c Bucket 486 Reduced to term with 13 nodes
c Bucket 513 Reduced to term with 35 nodes
c Bucket 540 Reduced to term with 9 nodes
c Bucket 567 Reduced to term with 23 nodes
c Bucket 594 Reduced to term with 21 nodes
c Bucket 648 Reduced to term with 9 nodes
c Bucket 675 Reduced to term with 31 nodes
c Garbage collection #1: 2000003 nodes / 1937930 free / 36885 previously freed  / 0.0s / 0.0s total
c Bucket 729 Reduced to term with 463 nodes
c Bucket 756 Reduced to term with 13 nodes
c Bucket 837 Reduced to term with 201 nodes
s UNSATISFIABLE

c Cache statistics
c ----------------
c Unique Access:  189552
c Unique Chain:   4865
c Unique Hit:     36137
c Unique Miss:    152006
c => Hit rate =   0.19
c Operator Hits:  241655
c Operator Miss:  265355
c => Hit rate =   0.48
c Swap count =    0

c BDD statistics
c ----------------
c Total BDD nodes produced: 152006
c Input variables: 1194
c Input clauses: 3184
c Total clauses: 978808
c Unused+non-BDD clause IDs: 15116 (1.5%)
c Maximum live clauses: 514535
c Deleted clauses: 975624
c Final live clauses: 3184
c Total variables: 153198
c Elapsed seconds: 1.118
-rw-r--r--  1 bryant  staff  48632006 Mar 10 23:07 chew-400-123456.lrat
c parsed a formula with 1194 variables and 3184 clauses
c VERIFIED
c allocated 1024 2788467 90667
c Added clauses = 978808.  Deleted clauses = 464273.  Max live clauses = 514535
c verification time = 0.59 secs
